p cnf 13 49
-4 -6 9 0
-2 -4 5 0
-3 7 13 0
-3 -6 7 0
8 11 13 0
1 -3 -10 0
-1 7 11 0
-5 7 10 0
1 2 -11 0
1 7 13 0
5 -10 11 0
7 -9 13 0
-4 7 -12 0
-1 -8 9 0
1 -10 13 0
2 5 7 0
1 -6 8 0
-5 -8 -10 0
8 -10 13 0
5 -7 8 0
5 -7 -8 0
-3 5 7 0
-1 -10 12 0
6 11 -13 0
1 10 -12 0
3 4 -11 0
-1 -2 -3 0
-3 -6 10 0
-1 6 10 0
-1 5 12 0
-5 6 8 0
-6 -11 13 0
1 6 -9 0
-1 -9 -13 0
2 7 10 0
9 -10 -11 0
-5 11 -13 0
9 12 13 0
8 -10 12 0
2 8 13 0
-2 6 9 0
-8 11 -12 0
2 5 10 0
6 8 -12 0
-1 -10 11 0
-1 9 -10 0
-3 4 -13 0
-2 8 13 0
4 9 13 0
